p edge 49 118
e 1 3
e 1 5
e 1 10
e 1 31
e 2 5
e 2 19
e 2 49
e 3 17
e 3 31
e 3 35
e 3 46
e 4 24
e 4 36
e 5 17
e 5 20
e 5 27
e 5 31
e 6 12
e 6 24
e 6 45
e 6 49
e 7 20
e 7 27
e 7 28
e 7 30
e 8 29
e 8 30
e 8 34
e 8 44
e 8 46
e 9 38
e 9 46
e 10 19
e 10 21
e 10 25
e 10 26
e 10 28
e 10 38
e 11 24
e 11 37
e 11 39
e 11 48
e 12 32
e 13 15
e 13 19
e 13 24
e 13 38
e 13 40
e 14 29
e 14 41
e 14 49
e 15 16
e 15 39
e 16 23
e 16 35
e 17 23
e 17 30
e 17 36
e 18 21
e 18 38
e 19 20
e 19 23
e 19 29
e 19 48
e 20 22
e 20 35
e 20 37
e 20 41
e 20 43
e 20 45
e 20 49
e 21 45
e 22 33
e 23 25
e 23 36
e 23 43
e 23 49
e 24 32
e 24 33
e 24 43
e 24 47
e 24 49
e 25 29
e 25 31
e 25 33
e 25 45
e 26 29
e 26 35
e 26 49
e 27 35
e 27 41
e 28 34
e 28 42
e 30 42
e 30 47
e 31 35
e 31 43
e 31 47
e 32 36
e 32 39
e 32 41
e 33 47
e 34 44
e 34 48
e 35 39
e 35 42
e 36 38
e 37 39
e 38 42
e 38 44
e 39 46
e 39 47
e 40 47
e 41 42
e 41 47
e 42 46
e 43 49
e 44 45
